16 5
97 103 72 107 40
4 4 3 4 5 3 3 2 3 3 3 1 5 4 2 2
27 24 15 24 10
16 9 12 11 8
16 11 14 14 9
10 5 7 7 2
13 3 6 5 4
12 6 9 9 4
14 8 11 10 6
16 11 14 14 9
16 8 11 10 7
7 10 11 12 6
7 13 13 14 9
2 9 7 9 7
6 6 3 5 6
13 10 12 12 7
20 12 15 13 11
14 4 6 4 7
14 14 16 16 11
